result&benchmarks/Data/Ex1/verify/Output/68-longjmp_05-heap-counting-return-one-method_unknown_1_neg_process_dc_iter2Output/Counterexample.1.txt
none:	N31 -{INIT GLOBAL VARS}-> N54
/usr/include/assert.h, lines 69-71:	N54 -{void __assert_fail(const char *__assertion, const char *__file, unsigned int __line, const char *__function);}-> N55
/usr/include/assert.h, lines 74-76:	N55 -{void __assert_perror_fail(int __errnum, const char *__file, unsigned int __line, const char *__function);}-> N56
/usr/include/assert.h, lines 81-82:	N56 -{void __assert(const char *__assertion, const char *__file, int __line);}-> N57
/usr/include/x86_64-linux-gnu/bits/setjmp.h, line 31:	N57 -{typedef long int __jmp_buf[8];}-> N58
/usr/include/x86_64-linux-gnu/bits/types/__sigset_t.h, lines 5-8:	N58 -{struct __anon_type___sigset_t {   unsigned long int __val[32UL]; } ;}-> N59
/usr/include/x86_64-linux-gnu/bits/types/__sigset_t.h, lines 5-8:	N59 -{typedef struct __anon_type___sigset_t __sigset_t;}-> N60
/usr/include/x86_64-linux-gnu/bits/types/struct___jmp_buf_tag.h, lines 26-35:	N60 -{struct __jmp_buf_tag {   __jmp_buf __jmpbuf;   int __mask_was_saved;   __sigset_t __saved_mask; } ;}-> N61
/usr/include/setjmp.h, line 32:	N61 -{typedef struct __jmp_buf_tag jmp_buf[1];}-> N62
/usr/include/setjmp.h, line 36:	N62 -{int setjmp(jmp_buf __env);}-> N63
/usr/include/setjmp.h, line 41:	N63 -{int __sigsetjmp(struct __jmp_buf_tag __env[1], int __savemask);}-> N64
/usr/include/setjmp.h, line 45:	N64 -{int _setjmp(struct __jmp_buf_tag __env[1]);}-> N65
/usr/include/setjmp.h, lines 54-55:	N65 -{void longjmp(struct __jmp_buf_tag __env[1], int __val);}-> N66
/usr/include/setjmp.h, lines 61-62:	N66 -{void _longjmp(struct __jmp_buf_tag __env[1], int __val);}-> N67
/usr/include/setjmp.h, line 70:	N67 -{typedef struct __jmp_buf_tag sigjmp_buf[1];}-> N68
/usr/include/setjmp.h, lines 80-81:	N68 -{void siglongjmp(sigjmp_buf __env, int __val);}-> N69
/usr/lib/gcc/x86_64-linux-gnu/11/include/stddef.h, line 209:	N69 -{typedef unsigned long int size_t;}-> N70
/usr/lib/gcc/x86_64-linux-gnu/11/include/stddef.h, line 321:	N70 -{typedef int wchar_t;}-> N71
/usr/include/stdlib.h, lines 59-63:	N71 -{struct __anon_type_div_t {   int quot;   int rem; } ;}-> N72
/usr/include/stdlib.h, lines 59-63:	N72 -{typedef struct __anon_type_div_t div_t;}-> N73
/usr/include/stdlib.h, lines 67-71:	N73 -{struct __anon_type_ldiv_t {   long int quot;   long int rem; } ;}-> N74
/usr/include/stdlib.h, lines 67-71:	N74 -{typedef struct __anon_type_ldiv_t ldiv_t;}-> N75
/usr/include/stdlib.h, lines 77-81:	N75 -{struct __anon_type_lldiv_t {   long long int quot;   long long int rem; } ;}-> N76
/usr/include/stdlib.h, lines 77-81:	N76 -{typedef struct __anon_type_lldiv_t lldiv_t;}-> N77
/usr/include/stdlib.h, line 98:	N77 -{size_t __ctype_get_mb_cur_max();}-> N78
/usr/include/stdlib.h, lines 102-103:	N78 -{double atof(const char *__nptr);}-> N79
/usr/include/stdlib.h, lines 105-106:	N79 -{int atoi(const char *__nptr);}-> N80
/usr/include/stdlib.h, lines 108-109:	N80 -{long int atol(const char *__nptr);}-> N81
/usr/include/stdlib.h, lines 113-114:	N81 -{long long int atoll(const char *__nptr);}-> N82
/usr/include/stdlib.h, lines 118-120:	N82 -{double strtod(const char *__nptr, char **__endptr);}-> N83
/usr/include/stdlib.h, lines 124-125:	N83 -{float strtof(const char *__nptr, char **__endptr);}-> N84
/usr/include/stdlib.h, lines 127-129:	N84 -{long double strtold(const char *__nptr, char **__endptr);}-> N85
/usr/include/stdlib.h, lines 177-179:	N85 -{long int strtol(const char *__nptr, char **__endptr, int __base);}-> N86
/usr/include/stdlib.h, lines 181-183:	N86 -{unsigned long int strtoul(const char *__nptr, char **__endptr, int __base);}-> N87
/usr/include/stdlib.h, lines 188-190:	N87 -{long long int strtoq(const char *__nptr, char **__endptr, int __base);}-> N88
/usr/include/stdlib.h, lines 193-195:	N88 -{unsigned long long int strtouq(const char *__nptr, char **__endptr, int __base);}-> N89
/usr/include/stdlib.h, lines 201-203:	N89 -{long long int strtoll(const char *__nptr, char **__endptr, int __base);}-> N90
/usr/include/stdlib.h, lines 206-208:	N90 -{unsigned long long int strtoull(const char *__nptr, char **__endptr, int __base);}-> N91
/usr/include/stdlib.h, line 386:	N91 -{char *l64a(long int __n);}-> N92
/usr/include/stdlib.h, lines 389-390:	N92 -{long int a64l(const char *__s);}-> N93
/usr/include/x86_64-linux-gnu/bits/types.h, line 31:	N93 -{typedef unsigned char __u_char;}-> N94
/usr/include/x86_64-linux-gnu/bits/types.h, line 32:	N94 -{typedef unsigned short int __u_short;}-> N95
/usr/include/x86_64-linux-gnu/bits/types.h, line 33:	N95 -{typedef unsigned int __u_int;}-> N96
/usr/include/x86_64-linux-gnu/bits/types.h, line 34:	N96 -{typedef unsigned long int __u_long;}-> N97
/usr/include/x86_64-linux-gnu/bits/types.h, line 37:	N97 -{typedef signed char __int8_t;}-> N98
/usr/include/x86_64-linux-gnu/bits/types.h, line 38:	N98 -{typedef unsigned char __uint8_t;}-> N99
/usr/include/x86_64-linux-gnu/bits/types.h, line 39:	N99 -{typedef signed short int __int16_t;}-> N100
/usr/include/x86_64-linux-gnu/bits/types.h, line 40:	N100 -{typedef unsigned short int __uint16_t;}-> N101
/usr/include/x86_64-linux-gnu/bits/types.h, line 41:	N101 -{typedef signed int __int32_t;}-> N102
/usr/include/x86_64-linux-gnu/bits/types.h, line 42:	N102 -{typedef unsigned int __uint32_t;}-> N103
/usr/include/x86_64-linux-gnu/bits/types.h, line 44:	N103 -{typedef signed long int __int64_t;}-> N104
/usr/include/x86_64-linux-gnu/bits/types.h, line 45:	N104 -{typedef unsigned long int __uint64_t;}-> N105
/usr/include/x86_64-linux-gnu/bits/types.h, line 52:	N105 -{typedef __int8_t __int_least8_t;}-> N106
/usr/include/x86_64-linux-gnu/bits/types.h, line 53:	N106 -{typedef __uint8_t __uint_least8_t;}-> N107
/usr/include/x86_64-linux-gnu/bits/types.h, line 54:	N107 -{typedef __int16_t __int_least16_t;}-> N108
/usr/include/x86_64-linux-gnu/bits/types.h, line 55:	N108 -{typedef __uint16_t __uint_least16_t;}-> N109
/usr/include/x86_64-linux-gnu/bits/types.h, line 56:	N109 -{typedef __int32_t __int_least32_t;}-> N110
/usr/include/x86_64-linux-gnu/bits/types.h, line 57:	N110 -{typedef __uint32_t __uint_least32_t;}-> N111
/usr/include/x86_64-linux-gnu/bits/types.h, line 58:	N111 -{typedef __int64_t __int_least64_t;}-> N112
/usr/include/x86_64-linux-gnu/bits/types.h, line 59:	N112 -{typedef __uint64_t __uint_least64_t;}-> N113
/usr/include/x86_64-linux-gnu/bits/types.h, line 63:	N113 -{typedef long int __quad_t;}-> N114
/usr/include/x86_64-linux-gnu/bits/types.h, line 64:	N114 -{typedef unsigned long int __u_quad_t;}-> N115
/usr/include/x86_64-linux-gnu/bits/types.h, line 72:	N115 -{typedef long int __intmax_t;}-> N116
/usr/include/x86_64-linux-gnu/bits/types.h, line 73:	N116 -{typedef unsigned long int __uintmax_t;}-> N117
/usr/include/x86_64-linux-gnu/bits/types.h, line 145:	N117 -{typedef unsigned long int __dev_t;}-> N118
/usr/include/x86_64-linux-gnu/bits/types.h, line 146:	N118 -{typedef unsigned int __uid_t;}-> N119
/usr/include/x86_64-linux-gnu/bits/types.h, line 147:	N119 -{typedef unsigned int __gid_t;}-> N120
/usr/include/x86_64-linux-gnu/bits/types.h, line 148:	N120 -{typedef unsigned long int __ino_t;}-> N121
/usr/include/x86_64-linux-gnu/bits/types.h, line 149:	N121 -{typedef unsigned long int __ino64_t;}-> N122
/usr/include/x86_64-linux-gnu/bits/types.h, line 150:	N122 -{typedef unsigned int __mode_t;}-> N123
/usr/include/x86_64-linux-gnu/bits/types.h, line 151:	N123 -{typedef unsigned long int __nlink_t;}-> N124
/usr/include/x86_64-linux-gnu/bits/types.h, line 152:	N124 -{typedef long int __off_t;}-> N125
/usr/include/x86_64-linux-gnu/bits/types.h, line 153:	N125 -{typedef long int __off64_t;}-> N126
/usr/include/x86_64-linux-gnu/bits/types.h, line 154:	N126 -{typedef int __pid_t;}-> N127
/usr/include/x86_64-linux-gnu/bits/types.h, line 155:	N127 -{struct __anon_type___fsid_t {   int __val[2]; } ;}-> N128
/usr/include/x86_64-linux-gnu/bits/types.h, line 155:	N128 -{typedef struct __anon_type___fsid_t __fsid_t;}-> N129
/usr/include/x86_64-linux-gnu/bits/types.h, line 156:	N129 -{typedef long int __clock_t;}-> N130
/usr/include/x86_64-linux-gnu/bits/types.h, line 157:	N130 -{typedef unsigned long int __rlim_t;}-> N131
/usr/include/x86_64-linux-gnu/bits/types.h, line 158:	N131 -{typedef unsigned long int __rlim64_t;}-> N132
/usr/include/x86_64-linux-gnu/bits/types.h, line 159:	N132 -{typedef unsigned int __id_t;}-> N133
/usr/include/x86_64-linux-gnu/bits/types.h, line 160:	N133 -{typedef long int __time_t;}-> N134
/usr/include/x86_64-linux-gnu/bits/types.h, line 161:	N134 -{typedef unsigned int __useconds_t;}-> N135
/usr/include/x86_64-linux-gnu/bits/types.h, line 162:	N135 -{typedef long int __suseconds_t;}-> N136
/usr/include/x86_64-linux-gnu/bits/types.h, line 163:	N136 -{typedef long int __suseconds64_t;}-> N137
/usr/include/x86_64-linux-gnu/bits/types.h, line 165:	N137 -{typedef int __daddr_t;}-> N138
/usr/include/x86_64-linux-gnu/bits/types.h, line 166:	N138 -{typedef int __key_t;}-> N139
/usr/include/x86_64-linux-gnu/bits/types.h, line 169:	N139 -{typedef int __clockid_t;}-> N140
/usr/include/x86_64-linux-gnu/bits/types.h, line 172:	N140 -{typedef void *__timer_t;}-> N141
/usr/include/x86_64-linux-gnu/bits/types.h, line 175:	N141 -{typedef long int __blksize_t;}-> N142
/usr/include/x86_64-linux-gnu/bits/types.h, line 180:	N142 -{typedef long int __blkcnt_t;}-> N143
/usr/include/x86_64-linux-gnu/bits/types.h, line 181:	N143 -{typedef long int __blkcnt64_t;}-> N144
/usr/include/x86_64-linux-gnu/bits/types.h, line 184:	N144 -{typedef unsigned long int __fsblkcnt_t;}-> N145
/usr/include/x86_64-linux-gnu/bits/types.h, line 185:	N145 -{typedef unsigned long int __fsblkcnt64_t;}-> N146
/usr/include/x86_64-linux-gnu/bits/types.h, line 188:	N146 -{typedef unsigned long int __fsfilcnt_t;}-> N147
/usr/include/x86_64-linux-gnu/bits/types.h, line 189:	N147 -{typedef unsigned long int __fsfilcnt64_t;}-> N148
/usr/include/x86_64-linux-gnu/bits/types.h, line 192:	N148 -{typedef long int __fsword_t;}-> N149
/usr/include/x86_64-linux-gnu/bits/types.h, line 194:	N149 -{typedef long int __ssize_t;}-> N150
/usr/include/x86_64-linux-gnu/bits/types.h, line 197:	N150 -{typedef long int __syscall_slong_t;}-> N151
/usr/include/x86_64-linux-gnu/bits/types.h, line 199:	N151 -{typedef unsigned long int __syscall_ulong_t;}-> N152
/usr/include/x86_64-linux-gnu/bits/types.h, line 203:	N152 -{typedef __off64_t __loff_t;}-> N153
/usr/include/x86_64-linux-gnu/bits/types.h, line 204:	N153 -{typedef char *__caddr_t;}-> N154
/usr/include/x86_64-linux-gnu/bits/types.h, line 207:	N154 -{typedef long int __intptr_t;}-> N155
/usr/include/x86_64-linux-gnu/bits/types.h, line 210:	N155 -{typedef unsigned int __socklen_t;}-> N156
/usr/include/x86_64-linux-gnu/bits/types.h, line 215:	N156 -{typedef int __sig_atomic_t;}-> N157
/usr/include/x86_64-linux-gnu/sys/types.h, line 33:	N157 -{typedef __u_char u_char;}-> N158
/usr/include/x86_64-linux-gnu/sys/types.h, line 34:	N158 -{typedef __u_short u_short;}-> N159
/usr/include/x86_64-linux-gnu/sys/types.h, line 35:	N159 -{typedef __u_int u_int;}-> N160
/usr/include/x86_64-linux-gnu/sys/types.h, line 36:	N160 -{typedef __u_long u_long;}-> N161
/usr/include/x86_64-linux-gnu/sys/types.h, line 37:	N161 -{typedef __quad_t quad_t;}-> N162
/usr/include/x86_64-linux-gnu/sys/types.h, line 38:	N162 -{typedef __u_quad_t u_quad_t;}-> N163
/usr/include/x86_64-linux-gnu/sys/types.h, line 39:	N163 -{typedef __fsid_t fsid_t;}-> N164
/usr/include/x86_64-linux-gnu/sys/types.h, line 42:	N164 -{typedef __loff_t loff_t;}-> N165
/usr/include/x86_64-linux-gnu/sys/types.h, line 47:	N165 -{typedef __ino_t ino_t;}-> N166
/usr/include/x86_64-linux-gnu/sys/types.h, line 59:	N166 -{typedef __dev_t dev_t;}-> N167
/usr/include/x86_64-linux-gnu/sys/types.h, line 64:	N167 -{typedef __gid_t gid_t;}-> N168
/usr/include/x86_64-linux-gnu/sys/types.h, line 69:	N168 -{typedef __mode_t mode_t;}-> N169
/usr/include/x86_64-linux-gnu/sys/types.h, line 74:	N169 -{typedef __nlink_t nlink_t;}-> N170
/usr/include/x86_64-linux-gnu/sys/types.h, line 79:	N170 -{typedef __uid_t uid_t;}-> N171
/usr/include/x86_64-linux-gnu/sys/types.h, line 85:	N171 -{typedef __off_t off_t;}-> N172
/usr/include/x86_64-linux-gnu/sys/types.h, line 97:	N172 -{typedef __pid_t pid_t;}-> N173
/usr/include/x86_64-linux-gnu/sys/types.h, line 103:	N173 -{typedef __id_t id_t;}-> N174
/usr/include/x86_64-linux-gnu/sys/types.h, line 108:	N174 -{typedef __ssize_t ssize_t;}-> N175
/usr/include/x86_64-linux-gnu/sys/types.h, line 114:	N175 -{typedef __daddr_t daddr_t;}-> N176
/usr/include/x86_64-linux-gnu/sys/types.h, line 115:	N176 -{typedef __caddr_t caddr_t;}-> N177
/usr/include/x86_64-linux-gnu/sys/types.h, line 121:	N177 -{typedef __key_t key_t;}-> N178
/usr/include/x86_64-linux-gnu/bits/types/clock_t.h, line 7:	N178 -{typedef __clock_t clock_t;}-> N179
/usr/include/x86_64-linux-gnu/bits/types/clockid_t.h, line 7:	N179 -{typedef __clockid_t clockid_t;}-> N180
/usr/include/x86_64-linux-gnu/bits/types/time_t.h, line 10:	N180 -{typedef __time_t time_t;}-> N181
/usr/include/x86_64-linux-gnu/bits/types/timer_t.h, line 7:	N181 -{typedef __timer_t timer_t;}-> N182
/usr/include/x86_64-linux-gnu/sys/types.h, line 148:	N182 -{typedef unsigned long int ulong;}-> N183
/usr/include/x86_64-linux-gnu/sys/types.h, line 149:	N183 -{typedef unsigned short int ushort;}-> N184
/usr/include/x86_64-linux-gnu/sys/types.h, line 150:	N184 -{typedef unsigned int uint;}-> N185
/usr/include/x86_64-linux-gnu/bits/stdint-intn.h, line 24:	N185 -{typedef __int8_t int8_t;}-> N186
/usr/include/x86_64-linux-gnu/bits/stdint-intn.h, line 25:	N186 -{typedef __int16_t int16_t;}-> N187
/usr/include/x86_64-linux-gnu/bits/stdint-intn.h, line 26:	N187 -{typedef __int32_t int32_t;}-> N188
/usr/include/x86_64-linux-gnu/bits/stdint-intn.h, line 27:	N188 -{typedef __int64_t int64_t;}-> N189
/usr/include/x86_64-linux-gnu/sys/types.h, line 158:	N189 -{typedef __uint8_t u_int8_t;}-> N190
/usr/include/x86_64-linux-gnu/sys/types.h, line 159:	N190 -{typedef __uint16_t u_int16_t;}-> N191
/usr/include/x86_64-linux-gnu/sys/types.h, line 160:	N191 -{typedef __uint32_t u_int32_t;}-> N192
/usr/include/x86_64-linux-gnu/sys/types.h, line 161:	N192 -{typedef __uint64_t u_int64_t;}-> N193
/usr/include/x86_64-linux-gnu/sys/types.h, line 164:	N193 -{typedef signed int register_t;}-> N194
/usr/include/x86_64-linux-gnu/bits/byteswap.h, lines 33-41:	N194 -{__uint16_t __bswap_16(__uint16_t __bsx);}-> N195
/usr/include/x86_64-linux-gnu/bits/byteswap.h, lines 48-56:	N195 -{__uint32_t __bswap_32(__uint32_t __bsx);}-> N196
/usr/include/x86_64-linux-gnu/bits/byteswap.h, lines 69-77:	N196 -{__uint64_t __bswap_64(__uint64_t __bsx);}-> N197
/usr/include/x86_64-linux-gnu/bits/uintn-identity.h, lines 32-36:	N197 -{__uint16_t __uint16_identity(__uint16_t __x);}-> N198
/usr/include/x86_64-linux-gnu/bits/uintn-identity.h, lines 38-42:	N198 -{__uint32_t __uint32_identity(__uint32_t __x);}-> N199
/usr/include/x86_64-linux-gnu/bits/uintn-identity.h, lines 44-48:	N199 -{__uint64_t __uint64_identity(__uint64_t __x);}-> N200
/usr/include/x86_64-linux-gnu/bits/types/sigset_t.h, line 7:	N200 -{typedef __sigset_t sigset_t;}-> N201
/usr/include/x86_64-linux-gnu/bits/types/struct_timeval.h, lines 8-17:	N201 -{struct timeval {   __time_t tv_sec;   __suseconds_t tv_usec; } ;}-> N202
/usr/include/x86_64-linux-gnu/bits/types/struct_timespec.h, lines 11-31:	N202 -{struct timespec {   __time_t tv_sec;   __syscall_slong_t tv_nsec; } ;}-> N203
/usr/include/x86_64-linux-gnu/sys/select.h, line 43:	N203 -{typedef __suseconds_t suseconds_t;}-> N204
/usr/include/x86_64-linux-gnu/sys/select.h, line 49:	N204 -{typedef long int __fd_mask;}-> N205
/usr/include/x86_64-linux-gnu/sys/select.h, lines 59-70:	N205 -{struct __anon_type_fd_set {   __fd_mask __fds_bits[32]; } ;}-> N206
/usr/include/x86_64-linux-gnu/sys/select.h, lines 59-70:	N206 -{typedef struct __anon_type_fd_set fd_set;}-> N207
/usr/include/x86_64-linux-gnu/sys/select.h, line 77:	N207 -{typedef __fd_mask fd_mask;}-> N208
/usr/include/x86_64-linux-gnu/sys/select.h, lines 102-105:	N208 -{int select(int __nfds, fd_set *__readfds, fd_set *__writefds, fd_set *__exceptfds, struct timeval *__timeout);}-> N209
/usr/include/x86_64-linux-gnu/sys/select.h, lines 127-131:	N209 -{int pselect(int __nfds, fd_set *__readfds, fd_set *__writefds, fd_set *__exceptfds, const struct timespec *__timeout, const __sigset_t *__sigmask);}-> N210
/usr/include/x86_64-linux-gnu/sys/types.h, line 185:	N210 -{typedef __blksize_t blksize_t;}-> N211
/usr/include/x86_64-linux-gnu/sys/types.h, line 192:	N211 -{typedef __blkcnt_t blkcnt_t;}-> N212
/usr/include/x86_64-linux-gnu/sys/types.h, line 196:	N212 -{typedef __fsblkcnt_t fsblkcnt_t;}-> N213
/usr/include/x86_64-linux-gnu/sys/types.h, line 200:	N213 -{typedef __fsfilcnt_t fsfilcnt_t;}-> N214
/usr/include/x86_64-linux-gnu/bits/atomic_wide_counter.h, lines 28-32:	N214 -{struct __anon_type_0 {   unsigned int __low;   unsigned int __high; } ;}-> N215
/usr/include/x86_64-linux-gnu/bits/atomic_wide_counter.h, lines 25-33:	N215 -{union __anon_type___atomic_wide_counter {   unsigned long long int __value64;   struct __anon_type_0 __value32; } ;}-> N216
/usr/include/x86_64-linux-gnu/bits/atomic_wide_counter.h, lines 25-33:	N216 -{typedef union __anon_type___atomic_wide_counter __atomic_wide_counter;}-> N217
/usr/include/x86_64-linux-gnu/bits/thread-shared-types.h, lines 51-55:	N217 -{struct __pthread_internal_list {   struct __pthread_internal_list *__prev;   struct __pthread_internal_list *__next; } ;}-> N218
/usr/include/x86_64-linux-gnu/bits/thread-shared-types.h, lines 51-55:	N218 -{typedef struct __pthread_internal_list __pthread_list_t;}-> N219
/usr/include/x86_64-linux-gnu/bits/thread-shared-types.h, lines 57-60:	N219 -{struct __pthread_internal_slist {   struct __pthread_internal_slist *__next; } ;}-> N220
/usr/include/x86_64-linux-gnu/bits/thread-shared-types.h, lines 57-60:	N220 -{typedef struct __pthread_internal_slist __pthread_slist_t;}-> N221
/usr/include/x86_64-linux-gnu/bits/struct_mutex.h, lines 22-53:	N221 -{struct __pthread_mutex_s {   int __lock;   unsigned int __count;   int __owner;   unsigned int __nusers;   int __kind;   short __spins;   short __elision;   __pthread_list_t __list; } ;}-> N222
/usr/include/x86_64-linux-gnu/bits/struct_rwlock.h, lines 23-55:	N222 -{struct __pthread_rwlock_arch_t {   unsigned int __readers;   unsigned int __writers;   unsigned int __wrphase_futex;   unsigned int __writers_futex;   unsigned int __pad3;   unsigned int __pad4;   int __cur_writer;   int __shared;   signed char __rwelision;   unsigned char __pad1[7];   unsigned long int __pad2;   unsigned int __flags; } ;}-> N223
/usr/include/x86_64-linux-gnu/bits/thread-shared-types.h, lines 94-103:	N223 -{struct __pthread_cond_s {   __atomic_wide_counter __wseq;   __atomic_wide_counter __g1_start;   unsigned int __g_refs[2];   unsigned int __g_size[2];   unsigned int __g1_orig_size;   unsigned int __wrefs;   unsigned int __g_signals[2]; } ;}-> N224
/usr/include/x86_64-linux-gnu/bits/thread-shared-types.h, line 105:	N224 -{typedef unsigned int __tss_t;}-> N225
/usr/include/x86_64-linux-gnu/bits/thread-shared-types.h, line 106:	N225 -{typedef unsigned long int __thrd_t;}-> N226
/usr/include/x86_64-linux-gnu/bits/thread-shared-types.h, lines 108-111:	N226 -{struct __anon_type___once_flag {   int __data; } ;}-> N227
/usr/include/x86_64-linux-gnu/bits/thread-shared-types.h, lines 108-111:	N227 -{typedef struct __anon_type___once_flag __once_flag;}-> N228
/usr/include/x86_64-linux-gnu/bits/pthreadtypes.h, line 27:	N228 -{typedef unsigned long int pthread_t;}-> N229
/usr/include/x86_64-linux-gnu/bits/pthreadtypes.h, lines 32-36:	N229 -{union __anon_type_pthread_mutexattr_t {   char __size[4];   int __align; } ;}-> N230
/usr/include/x86_64-linux-gnu/bits/pthreadtypes.h, lines 32-36:	N230 -{typedef union __anon_type_pthread_mutexattr_t pthread_mutexattr_t;}-> N231
/usr/include/x86_64-linux-gnu/bits/pthreadtypes.h, lines 41-45:	N231 -{union __anon_type_pthread_condattr_t {   char __size[4];   int __align; } ;}-> N232
/usr/include/x86_64-linux-gnu/bits/pthreadtypes.h, lines 41-45:	N232 -{typedef union __anon_type_pthread_mutexattr_t pthread_condattr_t;}-> N233
/usr/include/x86_64-linux-gnu/bits/pthreadtypes.h, line 49:	N233 -{typedef unsigned int pthread_key_t;}-> N234
/usr/include/x86_64-linux-gnu/bits/pthreadtypes.h, line 53:	N234 -{typedef int pthread_once_t;}-> N235
/usr/include/x86_64-linux-gnu/bits/pthreadtypes.h, lines 56-60:	N235 -{union pthread_attr_t {   char __size[56];   long int __align; } ;}-> N236
/usr/include/x86_64-linux-gnu/bits/pthreadtypes.h, line 62:	N236 -{typedef union pthread_attr_t pthread_attr_t;}-> N237
/usr/include/x86_64-linux-gnu/bits/pthreadtypes.h, lines 67-72:	N237 -{union __anon_type_pthread_mutex_t {   struct __pthread_mutex_s __data;   char __size[40];   long int __align; } ;}-> N238
/usr/include/x86_64-linux-gnu/bits/pthreadtypes.h, lines 67-72:	N238 -{typedef union __anon_type_pthread_mutex_t pthread_mutex_t;}-> N239
/usr/include/x86_64-linux-gnu/bits/pthreadtypes.h, lines 75-80:	N239 -{union __anon_type_pthread_cond_t {   struct __pthread_cond_s __data;   char __size[48];   long long int __align; } ;}-> N240
/usr/include/x86_64-linux-gnu/bits/pthreadtypes.h, lines 75-80:	N240 -{typedef union __anon_type_pthread_cond_t pthread_cond_t;}-> N241
/usr/include/x86_64-linux-gnu/bits/pthreadtypes.h, lines 86-91:	N241 -{union __anon_type_pthread_rwlock_t {   struct __pthread_rwlock_arch_t __data;   char __size[56];   long int __align; } ;}-> N242
/usr/include/x86_64-linux-gnu/bits/pthreadtypes.h, lines 86-91:	N242 -{typedef union __anon_type_pthread_rwlock_t pthread_rwlock_t;}-> N243
/usr/include/x86_64-linux-gnu/bits/pthreadtypes.h, lines 93-97:	N243 -{union __anon_type_pthread_rwlockattr_t {   char __size[8];   long int __align; } ;}-> N244
/usr/include/x86_64-linux-gnu/bits/pthreadtypes.h, lines 93-97:	N244 -{typedef union __anon_type_pthread_rwlockattr_t pthread_rwlockattr_t;}-> N245
/usr/include/x86_64-linux-gnu/bits/pthreadtypes.h, line 103:	N245 -{typedef volatile int pthread_spinlock_t;}-> N246
/usr/include/x86_64-linux-gnu/bits/pthreadtypes.h, lines 108-112:	N246 -{union __anon_type_pthread_barrier_t {   char __size[32];   long int __align; } ;}-> N247
/usr/include/x86_64-linux-gnu/bits/pthreadtypes.h, lines 108-112:	N247 -{typedef union __anon_type_pthread_barrier_t pthread_barrier_t;}-> N248
/usr/include/x86_64-linux-gnu/bits/pthreadtypes.h, lines 114-118:	N248 -{union __anon_type_pthread_barrierattr_t {   char __size[4];   int __align; } ;}-> N249
/usr/include/x86_64-linux-gnu/bits/pthreadtypes.h, lines 114-118:	N249 -{typedef union __anon_type_pthread_mutexattr_t pthread_barrierattr_t;}-> N250
/usr/include/stdlib.h, line 402:	N250 -{long int random();}-> N251
/usr/include/stdlib.h, line 405:	N251 -{void srandom(unsigned int __seed);}-> N252
/usr/include/stdlib.h, lines 411-412:	N252 -{char *initstate(unsigned int __seed, char *__statebuf, size_t __statelen);}-> N253
/usr/include/stdlib.h, line 416:	N253 -{char *setstate(char *__statebuf);}-> N254
/usr/include/stdlib.h, lines 424-433:	N254 -{struct random_data {   int32_t *fptr;   int32_t *rptr;   int32_t *state;   int rand_type;   int rand_deg;   int rand_sep;   int32_t *end_ptr; } ;}-> N255
/usr/include/stdlib.h, lines 435-436:	N255 -{int random_r(struct random_data *__buf, int32_t *__result);}-> N256
/usr/include/stdlib.h, lines 438-439:	N256 -{int srandom_r(unsigned int __seed, struct random_data *__buf);}-> N257
/usr/include/stdlib.h, lines 441-444:	N257 -{int initstate_r(unsigned int __seed, char *__statebuf, size_t __statelen, struct random_data *__buf);}-> N258
/usr/include/stdlib.h, lines 446-448:	N258 -{int setstate_r(char *__statebuf, struct random_data *__buf);}-> N259
/usr/include/stdlib.h, line 454:	N259 -{int rand();}-> N260
/usr/include/stdlib.h, line 456:	N260 -{void srand(unsigned int __seed);}-> N261
/usr/include/stdlib.h, line 460:	N261 -{int rand_r(unsigned int *__seed);}-> N262
/usr/include/stdlib.h, line 468:	N262 -{double drand48();}-> N263
/usr/include/stdlib.h, line 469:	N263 -{double erand48(unsigned short int __xsubi[3]);}-> N264
/usr/include/stdlib.h, line 472:	N264 -{long int lrand48();}-> N265
/usr/include/stdlib.h, lines 473-474:	N265 -{long int nrand48(unsigned short int __xsubi[3]);}-> N266
/usr/include/stdlib.h, line 477:	N266 -{long int mrand48();}-> N267
/usr/include/stdlib.h, lines 478-479:	N267 -{long int jrand48(unsigned short int __xsubi[3]);}-> N268
/usr/include/stdlib.h, line 482:	N268 -{void srand48(long int __seedval);}-> N269
/usr/include/stdlib.h, lines 483-484:	N269 -{unsigned short int *seed48(unsigned short int __seed16v[3]);}-> N270
/usr/include/stdlib.h, line 485:	N270 -{void lcong48(unsigned short int __param[7]);}-> N271
/usr/include/stdlib.h, lines 491-499:	N271 -{struct drand48_data {   unsigned short int __x[3];   unsigned short int __old_x[3];   unsigned short int __c;   unsigned short int __init;   unsigned long long int __a; } ;}-> N272
/usr/include/stdlib.h, lines 502-503:	N272 -{int drand48_r(struct drand48_data *__buffer, double *__result);}-> N273
/usr/include/stdlib.h, lines 504-506:	N273 -{int erand48_r(unsigned short int __xsubi[3], struct drand48_data *__buffer, double *__result);}-> N274
/usr/include/stdlib.h, lines 509-511:	N274 -{int lrand48_r(struct drand48_data *__buffer, long int *__result);}-> N275
/usr/include/stdlib.h, lines 512-515:	N275 -{int nrand48_r(unsigned short int __xsubi[3], struct drand48_data *__buffer, long int *__result);}-> N276
/usr/include/stdlib.h, lines 518-520:	N276 -{int mrand48_r(struct drand48_data *__buffer, long int *__result);}-> N277
/usr/include/stdlib.h, lines 521-524:	N277 -{int jrand48_r(unsigned short int __xsubi[3], struct drand48_data *__buffer, long int *__result);}-> N278
/usr/include/stdlib.h, lines 527-528:	N278 -{int srand48_r(long int __seedval, struct drand48_data *__buffer);}-> N279
/usr/include/stdlib.h, lines 530-531:	N279 -{int seed48_r(unsigned short int __seed16v[3], struct drand48_data *__buffer);}-> N280
/usr/include/stdlib.h, lines 533-535:	N280 -{int lcong48_r(unsigned short int __param[7], struct drand48_data *__buffer);}-> N281
/usr/include/stdlib.h, lines 540-541:	N281 -{void *malloc(size_t __size);}-> N282
/usr/include/stdlib.h, lines 543-544:	N282 -{void *calloc(size_t __nmemb, size_t __size);}-> N283
/usr/include/stdlib.h, lines 551-552:	N283 -{void *realloc(void *__ptr, size_t __size);}-> N284
/usr/include/stdlib.h, line 555:	N284 -{void free(void *__ptr);}-> N285
/usr/include/stdlib.h, lines 563-566:	N285 -{void *reallocarray(void *__ptr, size_t __nmemb, size_t __size);}-> N286
/usr/include/alloca.h, line 32:	N286 -{void *alloca(size_t __size);}-> N287
/usr/include/stdlib.h, lines 580-581:	N287 -{void *valloc(size_t __size);}-> N288
/usr/include/stdlib.h, lines 586-587:	N288 -{int posix_memalign(void **__memptr, size_t __alignment, size_t __size);}-> N289
/usr/include/stdlib.h, lines 592-594:	N289 -{void *aligned_alloc(size_t __alignment, size_t __size);}-> N290
/usr/include/stdlib.h, line 598:	N290 -{void abort();}-> N291
/usr/include/stdlib.h, line 602:	N291 -{int atexit(void (*__func)());}-> N292
/usr/include/stdlib.h, line 610:	N292 -{int at_quick_exit(void (*__func)());}-> N293
/usr/include/stdlib.h, lines 617-618:	N293 -{int on_exit(void (*__func)(int __status, void *__arg), void *__arg);}-> N294
/usr/include/stdlib.h, line 624:	N294 -{void exit(int __status);}-> N295
/usr/include/stdlib.h, line 630:	N295 -{void quick_exit(int __status);}-> N296
/usr/include/stdlib.h, line 636:	N296 -{void _Exit(int __status);}-> N297
/usr/include/stdlib.h, line 641:	N297 -{char *getenv(const char *__name);}-> N298
/usr/include/stdlib.h, line 654:	N298 -{int putenv(char *__string);}-> N299
/usr/include/stdlib.h, lines 660-661:	N299 -{int setenv(const char *__name, const char *__value, int __replace);}-> N300
/usr/include/stdlib.h, line 664:	N300 -{int unsetenv(const char *__name);}-> N301
/usr/include/stdlib.h, line 671:	N301 -{int clearenv();}-> N302
/usr/include/stdlib.h, line 682:	N302 -{char *mktemp(char *__template);}-> N303
/usr/include/stdlib.h, line 695:	N303 -{int mkstemp(char *__template);}-> N304
/usr/include/stdlib.h, line 717:	N304 -{int mkstemps(char *__template, int __suffixlen);}-> N305
/usr/include/stdlib.h, line 738:	N305 -{char *mkdtemp(char *__template);}-> N306
/usr/include/stdlib.h, line 791:	N306 -{int system(const char *__command);}-> N307
/usr/include/stdlib.h, lines 808-809:	N307 -{char *realpath(const char *__name, char *__resolved);}-> N308
/usr/include/stdlib.h, line 816:	N308 -{typedef int (*__compar_fn_t)(const void *, const void *);}-> N309
/usr/include/stdlib.h, lines 828-830:	N309 -{void *bsearch(const void *__key, const void *__base, size_t __nmemb, size_t __size, __compar_fn_t __compar);}-> N310
/usr/include/stdlib.h, lines 838-839:	N310 -{void qsort(void *__base, size_t __nmemb, size_t __size, __compar_fn_t __compar);}-> N311
/usr/include/stdlib.h, line 848:	N311 -{int abs(int __x);}-> N312
/usr/include/stdlib.h, line 849:	N312 -{long int labs(long int __x);}-> N313
/usr/include/stdlib.h, lines 852-853:	N313 -{long long int llabs(long long int __x);}-> N314
/usr/include/stdlib.h, lines 860-861:	N314 -{div_t div(int __numer, int __denom);}-> N315
/usr/include/stdlib.h, lines 862-863:	N315 -{ldiv_t ldiv(long int __numer, long int __denom);}-> N316
/usr/include/stdlib.h, lines 866-868:	N316 -{lldiv_t lldiv(long long int __numer, long long int __denom);}-> N317
/usr/include/stdlib.h, lines 880-881:	N317 -{char *ecvt(double __value, int __ndigit, int *__decpt, int *__sign);}-> N318
/usr/include/stdlib.h, lines 886-887:	N318 -{char *fcvt(double __value, int __ndigit, int *__decpt, int *__sign);}-> N319
/usr/include/stdlib.h, lines 892-893:	N319 -{char *gcvt(double __value, int __ndigit, char *__buf);}-> N320
/usr/include/stdlib.h, lines 898-900:	N320 -{char *qecvt(long double __value, int __ndigit, int *__decpt, int *__sign);}-> N321
/usr/include/stdlib.h, lines 901-903:	N321 -{char *qfcvt(long double __value, int __ndigit, int *__decpt, int *__sign);}-> N322
/usr/include/stdlib.h, lines 904-905:	N322 -{char *qgcvt(long double __value, int __ndigit, char *__buf);}-> N323
/usr/include/stdlib.h, lines 910-912:	N323 -{int ecvt_r(double __value, int __ndigit, int *__decpt, int *__sign, char *__buf, size_t __len);}-> N324
/usr/include/stdlib.h, lines 913-915:	N324 -{int fcvt_r(double __value, int __ndigit, int *__decpt, int *__sign, char *__buf, size_t __len);}-> N325
/usr/include/stdlib.h, lines 917-920:	N325 -{int qecvt_r(long double __value, int __ndigit, int *__decpt, int *__sign, char *__buf, size_t __len);}-> N326
/usr/include/stdlib.h, lines 921-924:	N326 -{int qfcvt_r(long double __value, int __ndigit, int *__decpt, int *__sign, char *__buf, size_t __len);}-> N327
/usr/include/stdlib.h, line 930:	N327 -{int mblen(const char *__s, size_t __n);}-> N328
/usr/include/stdlib.h, lines 933-934:	N328 -{int mbtowc(wchar_t *__pwc, const char *__s, size_t __n);}-> N329
/usr/include/stdlib.h, line 937:	N329 -{int wctomb(char *__s, wchar_t __wchar);}-> N330
/usr/include/stdlib.h, lines 941-943:	N330 -{size_t mbstowcs(wchar_t *__pwcs, const char *__s, size_t __n);}-> N331
/usr/include/stdlib.h, lines 945-949:	N331 -{size_t wcstombs(char *__s, const wchar_t *__pwcs, size_t __n);}-> N332
/usr/include/stdlib.h, line 956:	N332 -{int rpmatch(const char *__response);}-> N333
/usr/include/stdlib.h, lines 967-970:	N333 -{int getsubopt(char **__optionp, char * const *__tokens, char **__valuep);}-> N334
/usr/include/stdlib.h, lines 1013-1014:	N334 -{int getloadavg(double __loadavg[], int __nelem);}-> N335
lines 5-19:	N335 -{int main();}-> N336
none:	N336 -{Function start dummy edge}-> N32
line 7:	N32 -{int iVar1;}-> N33
line 8:	N33 -{jmp_buf __env;}-> N34
	(&__env) == 4LL;
	(&(__env[0])) == 4LL;
	(&((__env[0]).__jmpbuf)) == 4LL;
	(&((__env[0]).__saved_mask)) == 40LL;
	(&((__env[0]).__saved_mask.__val)) == 40LL;
line 9:	N34 -{int count;}-> N35
	count == 0;
line 11:	N35 -{iVar1 = _setjmp(__env);}-> N36
	iVar1 == 0;
	(&__env) == 4LL;
	(&(__env[0])) == 4LL;
	(&((__env[0]).__jmpbuf)) == 4LL;
	(&((__env[0]).__saved_mask)) == 40LL;
	(&((__env[0]).__saved_mask.__val)) == 40LL;
	count == 0;
line 12:	N36 -{[iVar1 == 0]}-> N38
	iVar1 == 0;
	iVar1 == 0;
line 13:	N38 -{int __CPAchecker_TMP_2;}-> N39
line 13:	N39 -{[!(count != 0)]}-> N41
	count == 0;
	count == 0;
line 13:	N41 -{__CPAchecker_TMP_2 = 0;}-> N43
line 13:	N43 -{4UL;}-> N44
line 13:	N44 -{[!(count != 0)]}-> N47
	count == 0;
	count == 0;
line 13:	N47 -{__assert_fail("count != 0 && \"Assertion failed: count should not be 0\"", "/home/zyl/biVerify/CPA_DATA2/C/F/llmfix/realOutput/iterationTry/68-longjmp_05-heap-counting-return-one-method_unknown_1_neg_process_dc_iter2.c", 13, "__PRETTY_FUNCTION__");}-> N338
